[OPTIONS]
FLOW_UNITS           CFS
INFILTRATION         HORTON
FLOW_ROUTING         DYNWAVE
START_DATE           01/01/2026
START_TIME           00:00:00
END_DATE             01/02/2026
END_TIME             6:00:00
REPORT_STEP          00:05:00
WET_STEP             00:01:00
DRY_STEP             00:05:00
ROUTING_STEP         0:00:15
ALLOW_PONDING        YES

[EVAPORATION]
CONSTANT             0.0

[RAINGAGES]
RG1 INTENSITY 0:06 1.0 TIMESERIES TS1

[SUBCATCHMENTS]
S1 RG1 DET 339.59 90.0 3846.1 0.215 0

[SUBAREAS]
S1 0.015 0.10 0.05 0.1 25 OUTLET

[INFILTRATION]
S1 3.0 0.1 4.0 7 0

[OUTFALLS]
OUT1 0 FREE NO

[STORAGE]
DET 0 12.0 0 FUNCTIONAL 0 0 591703.7

[ORIFICES]
OR1 DET OUT1 BOTTOM 0 0.65 NO

[XSECTIONS]
OR1 CIRCULAR 4.760 0 0 0

[TIMESERIES]
TS1  0:00  0.031005
TS1  0:06  0.031863
TS1  0:12  0.032721
TS1  0:18  0.033579
TS1  0:24  0.034437
TS1  0:30  0.035295
TS1  0:36  0.036153
TS1  0:42  0.037010
TS1  0:48  0.037868
TS1  0:54  0.038726
TS1  1:00  0.039584
TS1  1:06  0.040442
TS1  1:12  0.041300
TS1  1:18  0.042158
TS1  1:24  0.043016
TS1  1:30  0.043873
TS1  1:36  0.044731
TS1  1:42  0.045589
TS1  1:48  0.046447
TS1  1:54  0.047305
TS1  2:00  0.048163
TS1  2:06  0.049021
TS1  2:12  0.049878
TS1  2:18  0.050736
TS1  2:24  0.051594
TS1  2:30  0.052452
TS1  2:36  0.053310
TS1  2:42  0.054168
TS1  2:48  0.055026
TS1  2:54  0.055884
TS1  3:00  0.056741
TS1  3:06  0.057599
TS1  3:12  0.058457
TS1  3:18  0.059315
TS1  3:24  0.060173
TS1  3:30  0.061031
TS1  3:36  0.061889
TS1  3:42  0.062747
TS1  3:48  0.063604
TS1  3:54  0.064462
TS1  4:00  0.065320
TS1  4:06  0.066178
TS1  4:12  0.067036
TS1  4:18  0.067894
TS1  4:24  0.068752
TS1  4:30  0.069609
TS1  4:36  0.070467
TS1  4:42  0.071325
TS1  4:48  0.072183
TS1  4:54  0.073041
TS1  5:00  0.073899
TS1  5:06  0.074757
TS1  5:12  0.075615
TS1  5:18  0.076472
TS1  5:24  0.077330
TS1  5:30  0.078188
TS1  5:36  0.079046
TS1  5:42  0.079904
TS1  5:48  0.080762
TS1  5:54  0.081620
TS1  6:00  0.082478
TS1  6:06  0.083335
TS1  6:12  0.084193
TS1  6:18  0.085051
TS1  6:24  0.085909
TS1  6:30  0.086767
TS1  6:36  0.087625
TS1  6:42  0.088483
TS1  6:48  0.089341
TS1  6:54  0.090198
TS1  7:00  0.091056
TS1  7:06  0.091914
TS1  7:12  0.092772
TS1  7:18  0.093630
TS1  7:24  0.094488
TS1  7:30  0.095346
TS1  7:36  0.096203
TS1  7:42  0.097061
TS1  7:48  0.097919
TS1  7:54  0.098777
TS1  8:00  0.099635
TS1  8:06  0.100493
TS1  8:12  0.101351
TS1  8:18  0.102209
TS1  8:24  0.103066
TS1  8:30  0.103924
TS1  8:36  0.104782
TS1  8:42  0.105640
TS1  8:48  0.106498
TS1  8:54  0.107356
TS1  9:00  0.146735
TS1  9:06  0.148440
TS1  9:12  0.150144
TS1  9:18  0.151849
TS1  9:24  0.153553
TS1  9:30  0.155258
TS1  9:36  0.156962
TS1  9:42  0.158667
TS1  9:48  0.160371
TS1  9:54  0.162076
TS1  10:00  0.163780
TS1  10:06  0.165485
TS1  10:12  0.167189
TS1  10:18  0.168894
TS1  10:24  0.170598
TS1  10:30  0.196350
TS1  10:36  0.219300
TS1  10:42  0.242250
TS1  10:48  0.265200
TS1  10:54  0.288150
TS1  11:00  0.311100
TS1  11:06  0.334050
TS1  11:12  0.357000
TS1  11:18  0.379950
TS1  11:24  0.402900
TS1  11:30  0.552747
TS1  11:36  0.660573
TS1  11:42  1.294180
TS1  11:48  2.282250
TS1  11:54  4.131000
TS1  12:00  5.584500
TS1  12:06  2.282250
TS1  12:12  1.294180
TS1  12:18  0.660573
TS1  12:24  0.552747
TS1  12:30  0.402900
TS1  12:36  0.379950
TS1  12:42  0.357000
TS1  12:48  0.334050
TS1  12:54  0.311100
TS1  13:00  0.288150
TS1  13:06  0.265200
TS1  13:12  0.242250
TS1  13:18  0.219300
TS1  13:24  0.196350
TS1  13:30  0.170598
TS1  13:36  0.168894
TS1  13:42  0.167189
TS1  13:48  0.165485
TS1  13:54  0.163780
TS1  14:00  0.162076
TS1  14:06  0.160371
TS1  14:12  0.158667
TS1  14:18  0.156962
TS1  14:24  0.155258
TS1  14:30  0.153553
TS1  14:36  0.151849
TS1  14:42  0.150144
TS1  14:48  0.148440
TS1  14:54  0.146735
TS1  15:00  0.107356
TS1  15:06  0.106498
TS1  15:12  0.105640
TS1  15:18  0.104782
TS1  15:24  0.103924
TS1  15:30  0.103066
TS1  15:36  0.102209
TS1  15:42  0.101351
TS1  15:48  0.100493
TS1  15:54  0.099635
TS1  16:00  0.098777
TS1  16:06  0.097919
TS1  16:12  0.097061
TS1  16:18  0.096203
TS1  16:24  0.095346
TS1  16:30  0.094488
TS1  16:36  0.093630
TS1  16:42  0.092772
TS1  16:48  0.091914
TS1  16:54  0.091056
TS1  17:00  0.090198
TS1  17:06  0.089341
TS1  17:12  0.088483
TS1  17:18  0.087625
TS1  17:24  0.086767
TS1  17:30  0.085909
TS1  17:36  0.085051
TS1  17:42  0.084193
TS1  17:48  0.083335
TS1  17:54  0.082478
TS1  18:00  0.081620
TS1  18:06  0.080762
TS1  18:12  0.079904
TS1  18:18  0.079046
TS1  18:24  0.078188
TS1  18:30  0.077330
TS1  18:36  0.076472
TS1  18:42  0.075615
TS1  18:48  0.074757
TS1  18:54  0.073899
TS1  19:00  0.073041
TS1  19:06  0.072183
TS1  19:12  0.071325
TS1  19:18  0.070467
TS1  19:24  0.069609
TS1  19:30  0.068752
TS1  19:36  0.067894
TS1  19:42  0.067036
TS1  19:48  0.066178
TS1  19:54  0.065320
TS1  20:00  0.064462
TS1  20:06  0.063604
TS1  20:12  0.062747
TS1  20:18  0.061889
TS1  20:24  0.061031
TS1  20:30  0.060173
TS1  20:36  0.059315
TS1  20:42  0.058457
TS1  20:48  0.057599
TS1  20:54  0.056741
TS1  21:00  0.055884
TS1  21:06  0.055026
TS1  21:12  0.054168
TS1  21:18  0.053310
TS1  21:24  0.052452
TS1  21:30  0.051594
TS1  21:36  0.050736
TS1  21:42  0.049878
TS1  21:48  0.049021
TS1  21:54  0.048163
TS1  22:00  0.047305
TS1  22:06  0.046447
TS1  22:12  0.045589
TS1  22:18  0.044731
TS1  22:24  0.043873
TS1  22:30  0.043016
TS1  22:36  0.042158
TS1  22:42  0.041300
TS1  22:48  0.040442
TS1  22:54  0.039584
TS1  23:00  0.038726
TS1  23:06  0.037868
TS1  23:12  0.037010
TS1  23:18  0.036153
TS1  23:24  0.035295
TS1  23:30  0.034437
TS1  23:36  0.033579
TS1  23:42  0.032721
TS1  23:48  0.031863
TS1  23:54  0.031005

[REPORT]
INPUT NO
NODES ALL
LINKS ALL
